Problem:    
Rows:       260
Columns:    89 (72 integer, 72 binary)
Non-zeros:  974
Status:     INTEGER OPTIMAL
Objective:  value = 83.877473 (MINimum)

   No.   Row name        Activity     Lower bound   Upper bound
------ ------------    ------------- ------------- -------------
     1 r.5                   83.8775             0               
     2 r.6                   42.3591      -973.575               
     3 r.7                   1083.88             0               
     4 r.8                  -959.823      -961.603               
     5 r.9                   1083.88             0               
     6 r.10                  -953.36      -973.608               
     7 r.11                  83.8775             0               
     8 r.12                  46.6396       -961.46               
     9 r.13                  1083.88             0               
    10 r.14                 -980.571      -998.994               
    11 r.15                  83.8775             0               
    12 r.16                  42.9048      -994.841               
    13 r.17                  1083.88             0               
    14 r.18                 -981.577      -997.723               
    15 r.19                  83.8775             0               
    16 r.20                  46.6396      -992.772               
    17 r.21                  1083.88             0               
    18 r.22                 -984.672      -987.217               
    19 r.23                  83.8775             0               
    20 r.24                  42.9048      -980.517               
    21 r.25                  1083.88             0               
    22 r.26                 -999.039      -999.039               
    23 r.27                  83.8775             0               
    24 r.28                  3.14338      -997.437               
    25 r.29                  1083.88             0               
    26 r.30                 -916.123      -962.762               
    27 r.31                  83.8775             0               
    28 r.32                  83.8775      -968.066               
    29 r.33                  83.8775             0               
    30 r.34                  83.8775      -932.594               
    31 r.35                  1083.88             0               
    32 r.36                 -916.123      -957.663               
    33 r.37                        1             1             = 
    34 r.38                        1             1             = 
    35 r.39                        1             1             = 
    36 r.40                        1             1             = 
    37 r.41                        1             1             = 
    38 r.42                        1             1             = 
    39 r.43                        1             1             = 
    40 r.44                        1             1             = 
    41 r.45                     1001             2               
    42 r.46                    -1001         -1001               
    43 r.47                   2005.1      -973.608               
    44 r.48                     1001             2               
    45 r.49                    -1001         -1001               
    46 r.50                   2005.1       -961.46               
    47 r.51                     1001             2               
    48 r.52                    -1001         -1001               
    49 r.53                  1977.89      -998.994               
    50 r.54                     1001             2               
    51 r.55                    -1001         -1001               
    52 r.56                  2001.36      -994.841               
    53 r.57                     1001             2               
    54 r.58                    -1001         -1001               
    55 r.59                  1976.88      -997.723               
    56 r.60                     1001             2               
    57 r.61                    -1001         -1001               
    58 r.62                   2005.1      -992.772               
    59 r.63                     1001             2               
    60 r.64                    -1001         -1001               
    61 r.65                  1973.79      -987.217               
    62 r.66                     1001             2               
    63 r.67                    -1001         -1001               
    64 r.68                  2001.36      -980.517               
    65 r.69                  40.5799      -973.575               
    66 r.70                 -961.603      -961.603               
    67 r.71                  40.5799      -973.575               
    68 r.72                 -961.603      -961.603               
    69 r.73                 -957.663      -962.762               
    70 r.74                  42.3368      -968.066               
    71 r.75                 -957.663      -962.762               
    72 r.76                  42.3368      -968.066               
    73 r.77                  42.3368      -932.594               
    74 r.78                 -957.663      -957.663               
    75 r.79                  42.3368      -932.594               
    76 r.80                 -957.663      -957.663               
    77 r.81                     1001             2               
    78 r.82                    -1001         -1001               
    79 r.83                  1995.72       26.4248               
    80 r.84                     1001             2               
    81 r.85                    -1001         -1001               
    82 r.86                  1993.54       38.3973               
    83 r.87                        2             2               
    84 r.88                       -2         -1001               
    85 r.89                 -27.2101      -998.994               
    86 r.90                     1000             2               
    87 r.91                    -1000         -1001               
    88 r.92                  1996.27      -994.841               
    89 r.93                        2             2               
    90 r.94                       -2         -1001               
    91 r.95                 -28.2164      -997.723               
    92 r.96                     1000             2               
    93 r.97                    -1000         -1001               
    94 r.98                     2000      -992.772               
    95 r.99                        2             2               
    96 r.100                      -2         -1001               
    97 r.101                -31.3116      -987.217               
    98 r.102                    1000             2               
    99 r.103                   -1000         -1001               
   100 r.104                 1996.27      -980.517               
   101 r.105                 -955.14      -973.608               
   102 r.106                 44.8603       -961.46               
   103 r.107                 -955.14      -973.608               
   104 r.108                 44.8603       -961.46               
   105 r.109                -962.762      -962.762               
   106 r.110                 37.2379      -968.066               
   107 r.111                -962.762      -962.762               
   108 r.112                 37.2379      -968.066               
   109 r.113                    1001             2               
   110 r.114                   -1001         -1001               
   111 r.115                 2037.24      -932.594               
   112 r.116                    1001             2               
   113 r.117                   -1001         -1001               
   114 r.118                 2037.24      -957.663               
   115 r.119                    1001             2               
   116 r.120                   -1001         -1001               
   117 r.121                 2022.11       26.4248               
   118 r.122                    1001             2               
   119 r.123                   -1001         -1001               
   120 r.124                 1998.64       38.3973               
   121 r.125                       2             2               
   122 r.126                      -2         -1001               
   123 r.127                 26.3917       26.3917               
   124 r.128                    1000             2               
   125 r.129                   -1000         -1001               
   126 r.130                  2005.1       38.5399               
   127 r.131                       2             2               
   128 r.132                      -2         -1001               
   129 r.133                -1.82472      -997.723               
   130 r.134                    1000             2               
   131 r.135                   -1000         -1001               
   132 r.136                  2005.1      -992.772               
   133 r.137                       2             2               
   134 r.138                      -2         -1001               
   135 r.139                -4.91988      -987.217               
   136 r.140                    1000             2               
   137 r.141                   -1000         -1001               
   138 r.142                 2001.36      -980.517               
   139 r.143                 -982.35      -998.994               
   140 r.144                 41.1256      -994.841               
   141 r.145                 -982.35      -998.994               
   142 r.146                 41.1256      -994.841               
   143 r.147                 -936.37      -962.762               
   144 r.148                 63.6296      -968.066               
   145 r.149                -957.663      -962.762               
   146 r.150                 42.3368      -968.066               
   147 r.151                 63.6296      -932.594               
   148 r.152                 -936.37      -957.663               
   149 r.153                 42.3368      -932.594               
   150 r.154                -957.663      -957.663               
   151 r.155                    1001             2               
   152 r.156                   -1001         -1001               
   153 r.157                 2023.94       26.4248               
   154 r.158                    1001             2               
   155 r.159                   -1001         -1001               
   156 r.160                 1993.54       38.3973               
   157 r.161                       2             2               
   158 r.162                      -2         -1001               
   159 r.163                 28.2164       26.3917               
   160 r.164                    1000             2               
   161 r.165                   -1000         -1001               
   162 r.166                    2000       38.5399               
   163 r.167                       2             2               
   164 r.168                      -2         -1001               
   165 r.169                  1.0063        1.0063               
   166 r.170                    1000             2               
   167 r.171                   -1000         -1001               
   168 r.172                 1996.27       5.15854               
   169 r.173                       2             2               
   170 r.174                      -2         -1001               
   171 r.175                -3.09516      -987.217               
   172 r.176                    1000             2               
   173 r.177                   -1000         -1001               
   174 r.178                 1996.27      -980.517               
   175 r.179                -983.356      -997.723               
   176 r.180                 44.8603      -992.772               
   177 r.181                -983.356      -997.723               
   178 r.182                 44.8603      -992.772               
   179 r.183                -934.546      -962.762               
   180 r.184                 65.4543      -968.066               
   181 r.185                -962.762      -962.762               
   182 r.186                 37.2379      -968.066               
   183 r.187                    1001             2               
   184 r.188                   -1001         -1001               
   185 r.189                 2065.45      -932.594               
   186 r.190                    1001             2               
   187 r.191                   -1001         -1001               
   188 r.192                 2037.24      -957.663               
   189 r.193                    1001             2               
   190 r.194                   -1001         -1001               
   191 r.195                 2026.21       26.4248               
   192 r.196                    1001             2               
   193 r.197                   -1001         -1001               
   194 r.198                 1998.64       38.3973               
   195 r.199                       2             2               
   196 r.200                      -2         -1001               
   197 r.201                 30.4932       26.3917               
   198 r.202                    1000             2               
   199 r.203                   -1000         -1001               
   200 r.204                  2005.1       38.5399               
   201 r.205                       2             2               
   202 r.206                      -2         -1001               
   203 r.207                 3.28303        1.0063               
   204 r.208                    1000             2               
   205 r.209                   -1000         -1001               
   206 r.210                 2001.36       5.15854               
   207 r.211                       2             2               
   208 r.212                      -2         -1001               
   209 r.213                 2.27673       2.27673               
   210 r.214                    1000             2               
   211 r.215                   -1000         -1001               
   212 r.216                  2005.1       7.22763               
   213 r.217                -986.451      -987.217               
   214 r.218                 41.1256      -980.517               
   215 r.219                -986.451      -987.217               
   216 r.220                 41.1256      -980.517               
   217 r.221                       2             2               
   218 r.222                      -2         -1001               
   219 r.223                -932.269      -962.762               
   220 r.224                    1000             2               
   221 r.225                   -1000         -1001               
   222 r.226                 2042.34      -968.066               
   223 r.227                 67.7311      -932.594               
   224 r.228                -932.269      -957.663               
   225 r.229                 42.3368      -932.594               
   226 r.230                -957.663      -957.663               
   227 r.231                -917.902      -962.762               
   228 r.232                 82.0982      -968.066               
   229 r.233                -917.902      -962.762               
   230 r.234                 82.0982      -968.066               
   231 r.235                       2             2               
   232 r.236                      -2         -1001               
   233 r.237                 931.451       12.7834               
   234 r.238                    1000             2               
   235 r.239                   -1000         -1001               
   236 r.240                 1959.03       19.4832               
   237 r.241                    1001             2               
   238 r.242                   -1001         -1001               
   239 r.243                    2000      -932.594               
   240 r.244                    1001             2               
   241 r.245                   -1001         -1001               
   242 r.246                    2000      -957.663               
   243 r.247                    1001             2               
   244 r.248                   -1001         -1001               
   245 r.249                 1962.76       26.3917               
   246 r.250                    1001             2               
   247 r.251                   -1001         -1001               
   248 r.252                 1962.76       38.5399               
   249 r.253                    1001             2               
   250 r.254                   -1001         -1001               
   251 r.255                 1934.55       2.27673               
   252 r.256                    1001             2               
   253 r.257                   -1001         -1001               
   254 r.258                 1962.76       7.22763               
   255 r.259                    1001             2               
   256 r.260                   -1001         -1001               
   257 r.261                    2000       37.2379               
   258 r.262                    1001             2               
   259 r.263                   -1001         -1001               
   260 r.264                    2000       31.9344               

   No. Column name       Activity     Lower bound   Upper bound
------ ------------    ------------- ------------- -------------
     1 tt                    83.8775             0               
     2 s_1_1        *              0             0             1 
     3 t_1_1                 42.3368             0               
     4 s_1_8        *              0             0             1 
     5 s_1_7        *              1             0             1 
     6 s_2_1        *              1             0             1 
     7 t_2_1                 42.3368             0               
     8 s_2_8        *              1             0             1 
     9 s_2_7        *              0             0             1 
    10 s_1_2        *              1             0             1 
    11 t_1_2                 37.2379             0               
    12 s_2_2        *              0             0             1 
    13 t_2_2                 37.2379             0               
    14 s_1_3        *              1             0             1 
    15 t_1_3                 63.6296             0               
    16 s_2_3        *              0             0             1 
    17 t_2_3                 42.3368             0               
    18 s_1_4        *              1             0             1 
    19 t_1_4                 65.4543             0               
    20 s_2_4        *              0             0             1 
    21 t_2_4                 37.2379             0               
    22 s_1_5        *              1             0             1 
    23 t_1_5                 67.7311             0               
    24 s_2_5        *              0             0             1 
    25 t_2_5                 42.3368             0               
    26 s_1_6        *              1             0             1 
    27 t_1_6                 82.0982             0               
    28 s_2_6        *              0             0             1 
    29 t_2_6                 82.0982             0               
    30 t_1_7                       0             0               
    31 t_2_7                       0             0               
    32 t_1_8                       0             0               
    33 t_2_8                       0             0               
    34 r_1_1_2      *              1             0             1 
    35 u_1_1_2      *              0             0             1 
    36 r_2_1_2      *              1             0             1 
    37 u_2_1_2      *              0             0             1 
    38 r_1_1_3      *              1             0             1 
    39 u_1_1_3      *              0             0             1 
    40 r_2_1_3      *              1             0             1 
    41 u_2_1_3      *              0             0             1 
    42 r_1_1_4      *              1             0             1 
    43 u_1_1_4      *              0             0             1 
    44 r_2_1_4      *              1             0             1 
    45 u_2_1_4      *              0             0             1 
    46 r_1_1_5      *              1             0             1 
    47 u_1_1_5      *              0             0             1 
    48 r_2_1_5      *              1             0             1 
    49 u_2_1_5      *              0             0             1 
    50 r_1_2_3      *              0             0             1 
    51 u_1_2_3      *              0             0             1 
    52 r_2_2_3      *              1             0             1 
    53 u_2_2_3      *              0             0             1 
    54 r_1_2_4      *              0             0             1 
    55 u_1_2_4      *              0             0             1 
    56 r_2_2_4      *              1             0             1 
    57 u_2_2_4      *              0             0             1 
    58 r_1_2_5      *              0             0             1 
    59 u_1_2_5      *              0             0             1 
    60 r_2_2_5      *              1             0             1 
    61 u_2_2_5      *              0             0             1 
    62 r_1_2_8      *              1             0             1 
    63 u_1_2_8      *              0             0             1 
    64 r_2_2_8      *              1             0             1 
    65 u_2_2_8      *              0             0             1 
    66 r_1_3_4      *              0             0             1 
    67 u_1_3_4      *              0             0             1 
    68 r_2_3_4      *              1             0             1 
    69 u_2_3_4      *              0             0             1 
    70 r_1_3_5      *              0             0             1 
    71 u_1_3_5      *              0             0             1 
    72 r_2_3_5      *              1             0             1 
    73 u_2_3_5      *              0             0             1 
    74 r_1_4_5      *              0             0             1 
    75 u_1_4_5      *              0             0             1 
    76 r_2_4_5      *              1             0             1 
    77 u_2_4_5      *              0             0             1 
    78 r_1_4_8      *              1             0             1 
    79 u_1_4_8      *              0             0             1 
    80 r_2_4_8      *              1             0             1 
    81 u_2_4_8      *              0             0             1 
    82 r_1_5_7      *              0             0             1 
    83 u_1_5_7      *              1             0             1 
    84 r_2_5_7      *              1             0             1 
    85 u_2_5_7      *              0             0             1 
    86 r_1_7_8      *              1             0             1 
    87 u_1_7_8      *              0             0             1 
    88 r_2_7_8      *              1             0             1 
    89 u_2_7_8      *              0             0             1 

Integer feasibility conditions:

KKT.PE: max.abs.err = 4.55e-13 on row 22
        max.rel.err = 2.09e-16 on row 22
        High quality

KKT.PB: max.abs.err = 3.41e-13 on row 22
        max.rel.err = 1.99e-15 on row 165
        High quality

End of output
